formal_verification/runs/model_eval_v7_smoke/case_007/run/model/design_smt2.smt2
; SMT-LIBv2 description generated by Yosys 0.64+40 (git sha1 90b906c4f, clang++ 18.1.8 -fPIC -O3)
; yosys-smt2-module vert_formal_wrap
(declare-sort |vert_formal_wrap_s| 0)
(declare-fun |vert_formal_wrap_is| (|vert_formal_wrap_s|) Bool)
; yosys-smt2-wire rst 1
(define-fun |vert_formal_wrap_n rst| ((state |vert_formal_wrap_s|)) Bool false)
; yosys-smt2-assert 0 _witness_.check_assert_vert_formal_wrap_sv_62_15 vert_formal_wrap.sv:62.5-62.52
(define-fun |vert_formal_wrap_a 0| ((state |vert_formal_wrap_s|)) Bool (or true (not true))) ; _witness_.check_assert_vert_formal_wrap_sv_62_15
; yosys-smt2-assert 1 _witness_.check_assert_vert_formal_wrap_sv_63_19 vert_formal_wrap.sv:63.5-63.98
(define-fun |vert_formal_wrap_a 1| ((state |vert_formal_wrap_s|)) Bool (or true (not true))) ; _witness_.check_assert_vert_formal_wrap_sv_63_19
; yosys-smt2-assert 2 _witness_.check_assert_vert_formal_wrap_sv_64_27 vert_formal_wrap.sv:64.5-64.146
(define-fun |vert_formal_wrap_a 2| ((state |vert_formal_wrap_s|)) Bool (or true (not true))) ; _witness_.check_assert_vert_formal_wrap_sv_64_27
; yosys-smt2-assert 3 _witness_.check_assert_vert_formal_wrap_sv_65_40 vert_formal_wrap.sv:65.5-65.147
(define-fun |vert_formal_wrap_a 3| ((state |vert_formal_wrap_s|)) Bool (or true (not true))) ; _witness_.check_assert_vert_formal_wrap_sv_65_40
; yosys-smt2-assert 4 _witness_.check_assert_vert_formal_wrap_sv_66_54 vert_formal_wrap.sv:66.5-66.52
(define-fun |vert_formal_wrap_a 4| ((state |vert_formal_wrap_s|)) Bool (or true (not true))) ; _witness_.check_assert_vert_formal_wrap_sv_66_54
; yosys-smt2-assert 5 _witness_.check_assert_vert_formal_wrap_sv_67_59 vert_formal_wrap.sv:67.5-67.94
(define-fun |vert_formal_wrap_a 5| ((state |vert_formal_wrap_s|)) Bool (or true (not true))) ; _witness_.check_assert_vert_formal_wrap_sv_67_59
; yosys-smt2-assert 6 _witness_.check_assert_vert_formal_wrap_sv_68_68 vert_formal_wrap.sv:68.5-68.125
(define-fun |vert_formal_wrap_a 6| ((state |vert_formal_wrap_s|)) Bool (or true (not true))) ; _witness_.check_assert_vert_formal_wrap_sv_68_68
; yosys-smt2-assert 7 _witness_.check_assert_vert_formal_wrap_sv_69_80 vert_formal_wrap.sv:69.5-69.121
(define-fun |vert_formal_wrap_a 7| ((state |vert_formal_wrap_s|)) Bool (or true (not true))) ; _witness_.check_assert_vert_formal_wrap_sv_69_80
; yosys-smt2-assume 0 _witness_.check_assume_vert_formal_wrap_sv_61_13 vert_formal_wrap.sv:61.5-61.18
(define-fun |vert_formal_wrap_u 0| ((state |vert_formal_wrap_s|)) Bool (or true (not true))) ; _witness_.check_assume_vert_formal_wrap_sv_61_13
(define-fun |vert_formal_wrap_a| ((state |vert_formal_wrap_s|)) Bool (and
  (|vert_formal_wrap_a 0| state)
  (|vert_formal_wrap_a 1| state)
  (|vert_formal_wrap_a 2| state)
  (|vert_formal_wrap_a 3| state)
  (|vert_formal_wrap_a 4| state)
  (|vert_formal_wrap_a 5| state)
  (|vert_formal_wrap_a 6| state)
  (|vert_formal_wrap_a 7| state)
))
(define-fun |vert_formal_wrap_u| ((state |vert_formal_wrap_s|)) Bool 
  (|vert_formal_wrap_u 0| state)
)
(define-fun |vert_formal_wrap_i| ((state |vert_formal_wrap_s|)) Bool true)
(define-fun |vert_formal_wrap_h| ((state |vert_formal_wrap_s|)) Bool true)
(define-fun |vert_formal_wrap_t| ((state |vert_formal_wrap_s|) (next_state |vert_formal_wrap_s|)) Bool true) ; end of module vert_formal_wrap
; yosys-smt2-topmod vert_formal_wrap
; end of yosys output
